(declare-fun temp871_2 () (_ BitVec 64))
(declare-fun temp871_1 () (_ BitVec 64))
(declare-fun temp871_4 () (_ BitVec 64))
(declare-fun temp871_3 () (_ BitVec 64))
(declare-fun temp871_5 () (_ BitVec 64))
(declare-fun var984667 () (_ BitVec 64))
(declare-fun temp871_6 () (_ BitVec 64))
(declare-fun temp871_7 () (_ BitVec 64))
(declare-fun temp871_8 () (_ BitVec 64))
(declare-fun ARGNAME_input_NAMEEND_DIMSIZE
             ()
             (Array (_ BitVec 64) (_ BitVec 64)))
(declare-fun temp871_9 () (_ BitVec 64))
(declare-fun temp871_10 () (_ BitVec 64))
(declare-fun temp871_11 () (_ BitVec 64))
(declare-fun temp871_12 () (_ BitVec 64))
(declare-fun temp871_13 () (_ BitVec 64))
(declare-fun temp871_14 () (_ BitVec 64))
(declare-fun temp871_15 () (_ BitVec 64))
(declare-fun temp871_16 () (_ BitVec 64))
(declare-fun temp871_17 () (_ BitVec 64))
(declare-fun temp871_18 () (_ BitVec 64))
(declare-fun temp871_19 () (_ BitVec 64))
(declare-fun temp871_20 () (_ BitVec 64))
(declare-fun temp871_21 () (_ BitVec 64))
(declare-fun temp871_22 () (_ BitVec 64))
(declare-fun temp871_23 () (_ BitVec 64))
(declare-fun temp871_25 () (_ BitVec 64))
(declare-fun temp871_24 () (_ BitVec 64))
(declare-fun ARGNAME_input_NAMEEND_DIM () (_ BitVec 64))
(declare-fun temp871_26 () (_ BitVec 64))
(declare-fun temp871_27 () (_ BitVec 64))
(declare-fun var984666 () (_ BitVec 64))
(declare-fun temp871_28 () (_ BitVec 64))
(declare-fun var984671 () (_ BitVec 64))
(declare-fun temp871_30 () (_ BitVec 64))
(declare-fun temp871_29 () (_ BitVec 64))
(declare-fun temp871_31 () (_ BitVec 64))
(declare-fun temp871_32 () (_ BitVec 64))
(declare-fun var984670 () (_ BitVec 64))
(declare-fun temp871_33 () (_ BitVec 64))
(declare-fun var984672 () (_ BitVec 64))
(declare-fun temp871_34 () (_ BitVec 64))
(declare-fun ARGNAME_B_NAMEEND_DIM () (_ BitVec 64))
(declare-fun var1117880 () (_ BitVec 64))
(declare-fun temp871_35 () (_ BitVec 64))
(declare-fun temp871_36 () (_ BitVec 64))
(declare-fun temp871_37 () (_ BitVec 64))
(declare-fun var921814 () (_ BitVec 64))
(declare-fun var921834 () (_ BitVec 64))
(declare-fun temp871_38 () (_ BitVec 64))
(declare-fun temp871_39 () (_ BitVec 64))
(declare-fun var921835 () (_ BitVec 64))
(declare-fun temp871_41 () (_ BitVec 64))
(declare-fun temp871_40 () (_ BitVec 64))
(declare-fun temp871_42 () (_ BitVec 64))
(declare-fun temp871_43 () (_ BitVec 64))
(declare-fun var921836 () (_ BitVec 64))
(declare-fun temp871_44 () (_ BitVec 64))
(declare-fun temp871_45 () (_ BitVec 64))
(declare-fun ARGNAME_B_NAMEEND_DIMSIZE () (Array (_ BitVec 64) (_ BitVec 64)))
(declare-fun temp871_46 () (_ BitVec 64))
(declare-fun temp871_47 () (_ BitVec 64))
(declare-fun temp871_48 () (_ BitVec 64))
(declare-fun temp871_49 () (_ BitVec 64))
(declare-fun temp871_50 () (_ BitVec 64))
(declare-fun temp871_51 () (_ BitVec 64))
(declare-fun temp871_52 () (_ BitVec 64))
(declare-fun temp871_53 () (_ BitVec 64))
(declare-fun temp871_54 () (_ BitVec 64))
(declare-fun temp871_55 () (_ BitVec 64))
(declare-fun temp871_56 () (_ BitVec 64))
(declare-fun temp871_57 () (_ BitVec 64))
(declare-fun temp871_58 () (_ BitVec 64))
(declare-fun temp871_59 () (_ BitVec 64))
(declare-fun temp871_60 () (_ BitVec 64))
(declare-fun temp871_61 () (_ BitVec 64))
(declare-fun temp871_63 () (_ BitVec 64))
(declare-fun temp871_62 () (_ BitVec 64))
(declare-fun temp871_64 () (_ BitVec 64))
(declare-fun temp871_65 () (_ BitVec 64))
(declare-fun var921838 () (_ BitVec 64))
(declare-fun var921839 () (_ BitVec 64))
(declare-fun temp871_66 () (_ BitVec 64))
(declare-fun temp871_67 () (_ BitVec 64))
(declare-fun var1709354 () (_ BitVec 64))
(declare-fun var1841618 () (_ BitVec 64))
(declare-fun temp871_68 () (_ BitVec 64))
(declare-fun var1904193 () (_ BitVec 64))
(declare-fun temp871_69 () (_ BitVec 64))
(declare-fun var863717 () (_ BitVec 64))
(declare-fun temp871_70 () (_ BitVec 64))
(declare-fun temp871_72 () (_ BitVec 64))
(declare-fun temp871_71 () (_ BitVec 64))
(declare-fun temp871_73 () (_ BitVec 64))
(declare-fun temp871_74 () (_ BitVec 64))
(assert (= temp871_2 #x0000000000000000))
(assert (= temp871_1 temp871_2))
(assert (= temp871_4 #x0000000000000001))
(assert (= temp871_3 temp871_4))
(assert (= temp871_5 #xffffffffffffffff))
(assert (= var984667 temp871_5))
(assert (= temp871_6 #x0000000000000000))
(assert (= temp871_7 temp871_6))
(assert (= temp871_8 (select ARGNAME_input_NAMEEND_DIMSIZE temp871_7)))
(assert (= temp871_9 #x0000000000000001))
(assert (= temp871_10 temp871_9))
(assert (= temp871_11 (select ARGNAME_input_NAMEEND_DIMSIZE temp871_10)))
(assert (= temp871_12 #x0000000000000002))
(assert (= temp871_13 temp871_12))
(assert (= temp871_14 (select ARGNAME_input_NAMEEND_DIMSIZE temp871_13)))
(assert (= temp871_15 #x0000000000000003))
(assert (= temp871_16 temp871_15))
(assert (= temp871_17 (select ARGNAME_input_NAMEEND_DIMSIZE temp871_16)))
(assert (= temp871_18 #x0000000000000004))
(assert (= temp871_19 temp871_18))
(assert (= temp871_20 (select ARGNAME_input_NAMEEND_DIMSIZE temp871_19)))
(assert (= temp871_21 #x0000000000000005))
(assert (= temp871_22 temp871_21))
(assert (= temp871_23 (select ARGNAME_input_NAMEEND_DIMSIZE temp871_22)))
(assert (= temp871_25 #x0000000000000000))
(assert (= temp871_24
   (ite (bvslt var984667 temp871_25)
        (bvadd ARGNAME_input_NAMEEND_DIM var984667)
        var984667)))
(assert (= temp871_26 temp871_24))
(assert (= temp871_27 (select ARGNAME_input_NAMEEND_DIMSIZE temp871_26)))
(assert (= var984666 temp871_27))
(assert (bvslt temp871_24 ARGNAME_input_NAMEEND_DIM))
(assert (= temp871_28 #xfffffffffffffffe))
(assert (= var984671 temp871_28))
(assert (= temp871_30 #x0000000000000000))
(assert (= temp871_29
   (ite (bvslt var984671 temp871_30)
        (bvadd ARGNAME_input_NAMEEND_DIM var984671)
        var984671)))
(assert (= temp871_31 temp871_29))
(assert (= temp871_32 (select ARGNAME_input_NAMEEND_DIMSIZE temp871_31)))
(assert (= var984670 temp871_32))
(assert (bvslt temp871_29 ARGNAME_input_NAMEEND_DIM))
(assert (= var984672
   (ite (= var984666 var984670) #x0000000000000001 #x0000000000000000)))
(assert (= temp871_33 #x0000000000000001))
(assert (= var984672 temp871_33))
(assert (= temp871_34 #x0000000000000002))
(assert (= var1117880
   (ite (bvslt ARGNAME_B_NAMEEND_DIM temp871_34)
        #x0000000000000001
        #x0000000000000000)))
(assert (= temp871_35 #x0000000000000000))
(assert (= var1117880 temp871_35))
(assert (= temp871_36 #xfffffffffffffffe))
(assert (= temp871_37 #xffffffffffffffff))
(assert (= var921834 (ite (= var921814 #x0000000000000001) temp871_36 temp871_37)))
(assert (= temp871_38 #xfffffffffffffffe))
(assert (= temp871_39 #xffffffffffffffff))
(assert (= var921835 (ite (= var921814 #x0000000000000001) temp871_38 temp871_39)))
(assert (= temp871_41 #x0000000000000000))
(assert (= temp871_40
   (ite (bvslt var921834 temp871_41)
        (bvadd ARGNAME_input_NAMEEND_DIM var921834)
        var921834)))
(assert (= temp871_42 temp871_40))
(assert (= temp871_43 (select ARGNAME_input_NAMEEND_DIMSIZE temp871_42)))
(assert (= var921836 temp871_43))
(assert (bvslt temp871_40 ARGNAME_input_NAMEEND_DIM))
(assert (= temp871_44 #x0000000000000000))
(assert (= temp871_45 temp871_44))
(assert (= temp871_46 (select ARGNAME_B_NAMEEND_DIMSIZE temp871_45)))
(assert (= temp871_47 #x0000000000000001))
(assert (= temp871_48 temp871_47))
(assert (= temp871_49 (select ARGNAME_B_NAMEEND_DIMSIZE temp871_48)))
(assert (= temp871_50 #x0000000000000002))
(assert (= temp871_51 temp871_50))
(assert (= temp871_52 (select ARGNAME_B_NAMEEND_DIMSIZE temp871_51)))
(assert (= temp871_53 #x0000000000000003))
(assert (= temp871_54 temp871_53))
(assert (= temp871_55 (select ARGNAME_B_NAMEEND_DIMSIZE temp871_54)))
(assert (= temp871_56 #x0000000000000004))
(assert (= temp871_57 temp871_56))
(assert (= temp871_58 (select ARGNAME_B_NAMEEND_DIMSIZE temp871_57)))
(assert (= temp871_59 #x0000000000000005))
(assert (= temp871_60 temp871_59))
(assert (= temp871_61 (select ARGNAME_B_NAMEEND_DIMSIZE temp871_60)))
(assert (= temp871_63 #x0000000000000000))
(assert (= temp871_62
   (ite (bvslt var921835 temp871_63)
        (bvadd ARGNAME_B_NAMEEND_DIM var921835)
        var921835)))
(assert (= temp871_64 temp871_62))
(assert (= temp871_65 (select ARGNAME_B_NAMEEND_DIMSIZE temp871_64)))
(assert (= var921838 temp871_65))
(assert (bvslt temp871_62 ARGNAME_B_NAMEEND_DIM))
(assert (= var921839
   (ite (= var921836 var921838) #x0000000000000001 #x0000000000000000)))
(assert (= temp871_66 #x0000000000000001))
(assert (= var921839 temp871_66))
(assert (= temp871_67 #x0000000000000000))
(assert (= var1709354 temp871_67))
(assert (= var1841618 var1709354))
(assert (= temp871_68 #x0000000000000001))
(assert (= var1904193 temp871_68))
(assert (= temp871_69 #x0000000000000000))
(assert (= var863717 temp871_69))
(assert (= temp871_70 #x0000000000000000))
(assert (= var863717 temp871_70))
(assert (= temp871_72 #x0000000000000000))
(assert (= temp871_71 temp871_72))
(assert (= temp871_73 #x0000000000000000))
(assert (= var863717 temp871_73))
(assert (= temp871_74 #x0000000000000000))
(assert (= var863717 temp871_74))
(model-add temp871_2 () (_ BitVec 64) #x0000000000000000)
(model-add temp871_1 () (_ BitVec 64) #x0000000000000000)
(model-add temp871_4 () (_ BitVec 64) #x0000000000000001)
(model-add temp871_3 () (_ BitVec 64) #x0000000000000001)
(model-add temp871_5 () (_ BitVec 64) #xffffffffffffffff)
(model-add var984667 () (_ BitVec 64) #xffffffffffffffff)
(model-add temp871_6 () (_ BitVec 64) #x0000000000000000)
(model-add temp871_7 () (_ BitVec 64) #x0000000000000000)
(model-add temp871_8
           ()
           (_ BitVec 64)
           (select ARGNAME_input_NAMEEND_DIMSIZE #x0000000000000000))
(model-add temp871_9 () (_ BitVec 64) #x0000000000000001)
(model-add temp871_10 () (_ BitVec 64) #x0000000000000001)
(model-add temp871_11
           ()
           (_ BitVec 64)
           (select ARGNAME_input_NAMEEND_DIMSIZE #x0000000000000001))
(model-add temp871_12 () (_ BitVec 64) #x0000000000000002)
(model-add temp871_13 () (_ BitVec 64) #x0000000000000002)
(model-add temp871_14
           ()
           (_ BitVec 64)
           (select ARGNAME_input_NAMEEND_DIMSIZE #x0000000000000002))
(model-add temp871_15 () (_ BitVec 64) #x0000000000000003)
(model-add temp871_16 () (_ BitVec 64) #x0000000000000003)
(model-add temp871_17
           ()
           (_ BitVec 64)
           (select ARGNAME_input_NAMEEND_DIMSIZE #x0000000000000003))
(model-add temp871_18 () (_ BitVec 64) #x0000000000000004)
(model-add temp871_19 () (_ BitVec 64) #x0000000000000004)
(model-add temp871_20
           ()
           (_ BitVec 64)
           (select ARGNAME_input_NAMEEND_DIMSIZE #x0000000000000004))
(model-add temp871_21 () (_ BitVec 64) #x0000000000000005)
(model-add temp871_22 () (_ BitVec 64) #x0000000000000005)
(model-add temp871_23
           ()
           (_ BitVec 64)
           (select ARGNAME_input_NAMEEND_DIMSIZE #x0000000000000005))
(model-add temp871_25 () (_ BitVec 64) #x0000000000000000)
(model-add temp871_24
           ()
           (_ BitVec 64)
           (bvadd #xffffffffffffffff ARGNAME_input_NAMEEND_DIM))
(model-add temp871_26
           ()
           (_ BitVec 64)
           (bvadd #xffffffffffffffff ARGNAME_input_NAMEEND_DIM))
(model-add temp871_27
           ()
           (_ BitVec 64)
           (select ARGNAME_input_NAMEEND_DIMSIZE
                   (bvadd #xffffffffffffffff ARGNAME_input_NAMEEND_DIM)))
(model-add var984666
           ()
           (_ BitVec 64)
           (select ARGNAME_input_NAMEEND_DIMSIZE
                   (bvadd #xffffffffffffffff ARGNAME_input_NAMEEND_DIM)))
(model-add temp871_28 () (_ BitVec 64) #xfffffffffffffffe)
(model-add var984671 () (_ BitVec 64) #xfffffffffffffffe)
(model-add temp871_30 () (_ BitVec 64) #x0000000000000000)
(model-add temp871_29
           ()
           (_ BitVec 64)
           (bvadd #xfffffffffffffffe ARGNAME_input_NAMEEND_DIM))
(model-add temp871_31
           ()
           (_ BitVec 64)
           (bvadd #xfffffffffffffffe ARGNAME_input_NAMEEND_DIM))
(model-add temp871_32
           ()
           (_ BitVec 64)
           (select ARGNAME_input_NAMEEND_DIMSIZE
                   (bvadd #xfffffffffffffffe ARGNAME_input_NAMEEND_DIM)))
(model-add var984670
           ()
           (_ BitVec 64)
           (select ARGNAME_input_NAMEEND_DIMSIZE
                   (bvadd #xfffffffffffffffe ARGNAME_input_NAMEEND_DIM)))
(model-add temp871_33 () (_ BitVec 64) #x0000000000000001)
(model-add var984672 () (_ BitVec 64) #x0000000000000001)





